##########################This LAMMPS script creates a 2 layer nomismatched 523.98*174.66 graphene model with x along armchair zigzag########################

## Simulation setup

units           metal
newton          on
atom_style      charge
dimension       3
boundary        p p p

## Box and atom creation

lattice custom 1.0 origin 0.0 0.0 0.0 &
a1 523.98000000 0      0 &
a2 0 174.660000 0 &
a3 0      0      34.000000 &
basis	0.998826523843	0.00406504065041	0.5	&
basis	0.998826523843	0.020325203252	0.5	&
basis	0.998826523843	0.0284552845528	0.5	&
basis	0.998826523843	0.0447154471545	0.5	&
basis	0.998826523843	0.0528455284553	0.5	&
basis	0.998826523843	0.0691056910569	0.5	&
basis	0.998826523843	0.0772357723577	0.5	&
basis	0.998826523843	0.0934959349593	0.5	&
basis	0.998826523843	0.10162601626	0.5	&
basis	0.998826523843	0.117886178862	0.5	&
basis	0.998826523843	0.126016260163	0.5	&
basis	0.998826523843	0.142276422764	0.5	&
basis	0.998826523843	0.150406504065	0.5	&
basis	0.998826523843	0.166666666667	0.5	&
basis	0.998826523843	0.174796747967	0.5	&
basis	0.998826523843	0.191056910569	0.5	&
basis	0.998826523843	0.19918699187	0.5	&
basis	0.998826523843	0.215447154472	0.5	&
basis	0.998826523843	0.223577235772	0.5	&
basis	0.998826523843	0.239837398374	0.5	&
basis	0.998826523843	0.247967479675	0.5	&
basis	0.998826523843	0.264227642276	0.5	&
basis	0.998826523843	0.272357723577	0.5	&
basis	0.998826523843	0.288617886179	0.5	&
basis	0.998826523843	0.29674796748	0.5	&
basis	0.998826523843	0.313008130081	0.5	&
basis	0.998826523843	0.321138211382	0.5	&
basis	0.998826523843	0.337398373984	0.5	&
basis	0.998826523843	0.345528455285	0.5	&
basis	0.998826523843	0.361788617886	0.5	&
basis	0.998826523843	0.369918699187	0.5	&
basis	0.998826523843	0.386178861789	0.5	&
basis	0.998826523843	0.394308943089	0.5	&
basis	0.998826523843	0.410569105691	0.5	&
basis	0.998826523843	0.418699186992	0.5	&
basis	0.998826523843	0.434959349593	0.5	&
basis	0.998826523843	0.443089430894	0.5	&
basis	0.998826523843	0.459349593496	0.5	&
basis	0.998826523843	0.467479674797	0.5	&
basis	0.998826523843	0.483739837398	0.5	&
basis	0.998826523843	0.491869918699	0.5	&
basis	0.998826523843	0.508130081301	0.5	&
basis	0.998826523843	0.516260162602	0.5	&
basis	0.998826523843	0.532520325203	0.5	&
basis	0.998826523843	0.540650406504	0.5	&
basis	0.998826523843	0.556910569106	0.5	&
basis	0.998826523843	0.565040650407	0.5	&
basis	0.998826523843	0.581300813008	0.5	&
basis	0.998826523843	0.589430894309	0.5	&
basis	0.998826523843	0.605691056911	0.5	&
basis	0.998826523843	0.613821138211	0.5	&
basis	0.998826523843	0.630081300813	0.5	&
basis	0.998826523843	0.638211382114	0.5	&
basis	0.998826523843	0.654471544715	0.5	&
basis	0.998826523843	0.662601626016	0.5	&
basis	0.998826523843	0.678861788618	0.5	&
basis	0.998826523843	0.686991869919	0.5	&
basis	0.998826523843	0.70325203252	0.5	&
basis	0.998826523843	0.711382113821	0.5	&
basis	0.998826523843	0.727642276423	0.5	&
basis	0.998826523843	0.735772357724	0.5	&
basis	0.998826523843	0.752032520325	0.5	&
basis	0.998826523843	0.760162601626	0.5	&
basis	0.998826523843	0.776422764228	0.5	&
basis	0.998826523843	0.784552845528	0.5	&
basis	0.998826523843	0.80081300813	0.5	&
basis	0.998826523843	0.808943089431	0.5	&
basis	0.998826523843	0.825203252033	0.5	&
basis	0.998826523843	0.833333333333	0.5	&
basis	0.998826523843	0.849593495935	0.5	&
basis	0.998826523843	0.857723577236	0.5	&
basis	0.998826523843	0.873983739837	0.5	&
basis	0.998826523843	0.882113821138	0.5	&
basis	0.998826523843	0.89837398374	0.5	&
basis	0.998826523843	0.906504065041	0.5	&
basis	0.998826523843	0.922764227642	0.5	&
basis	0.998826523843	0.930894308943	0.5	&
basis	0.998826523843	0.947154471545	0.5	&
basis	0.998826523843	0.955284552846	0.5	&
basis	0.998826523843	0.971544715447	0.5	&
basis	0.998826523843	0.979674796748	0.5	&
basis	0.998826523843	0.99593495935	0.5	&
basis	0.996479571529	0.991869918699	0.5	&
basis	0.996479571529	0.983739837398	0.5	&
basis	0.996479571529	0.967479674797	0.5	&
basis	0.996479571529	0.959349593496	0.5	&
basis	0.996479571529	0.943089430894	0.5	&
basis	0.996479571529	0.934959349593	0.5	&
basis	0.996479571529	0.918699186992	0.5	&
basis	0.996479571529	0.910569105691	0.5	&
basis	0.996479571529	0.894308943089	0.5	&
basis	0.996479571529	0.886178861789	0.5	&
basis	0.996479571529	0.869918699187	0.5	&
basis	0.996479571529	0.861788617886	0.5	&
basis	0.996479571529	0.845528455285	0.5	&
basis	0.996479571529	0.837398373984	0.5	&
basis	0.996479571529	0.821138211382	0.5	&
basis	0.996479571529	0.813008130081	0.5	&
basis	0.996479571529	0.79674796748	0.5	&
basis	0.996479571529	0.788617886179	0.5	&
basis	0.996479571529	0.772357723577	0.5	&
basis	0.996479571529	0.764227642276	0.5	&
basis	0.996479571529	0.747967479675	0.5	&
basis	0.996479571529	0.739837398374	0.5	&
basis	0.996479571529	0.723577235772	0.5	&
basis	0.996479571529	0.715447154472	0.5	&
basis	0.996479571529	0.69918699187	0.5	&
basis	0.996479571529	0.691056910569	0.5	&
basis	0.996479571529	0.674796747967	0.5	&
basis	0.996479571529	0.666666666667	0.5	&
basis	0.996479571529	0.650406504065	0.5	&
basis	0.996479571529	0.642276422764	0.5	&
basis	0.996479571529	0.626016260163	0.5	&
basis	0.996479571529	0.617886178862	0.5	&
basis	0.996479571529	0.60162601626	0.5	&
basis	0.996479571529	0.593495934959	0.5	&
basis	0.996479571529	0.577235772358	0.5	&
basis	0.996479571529	0.569105691057	0.5	&
basis	0.996479571529	0.552845528455	0.5	&
basis	0.996479571529	0.544715447154	0.5	&
basis	0.996479571529	0.528455284553	0.5	&
basis	0.996479571529	0.520325203252	0.5	&
basis	0.996479571529	0.50406504065	0.5	&
basis	0.996479571529	0.49593495935	0.5	&
basis	0.996479571529	0.479674796748	0.5	&
basis	0.996479571529	0.471544715447	0.5	&
basis	0.996479571529	0.455284552846	0.5	&
basis	0.996479571529	0.447154471545	0.5	&
basis	0.996479571529	0.430894308943	0.5	&
basis	0.996479571529	0.422764227642	0.5	&
basis	0.996479571529	0.406504065041	0.5	&
basis	0.996479571529	0.39837398374	0.5	&
basis	0.996479571529	0.382113821138	0.5	&
basis	0.996479571529	0.373983739837	0.5	&
basis	0.996479571529	0.357723577236	0.5	&
basis	0.996479571529	0.349593495935	0.5	&
basis	0.996479571529	0.333333333333	0.5	&
basis	0.996479571529	0.325203252033	0.5	&
basis	0.996479571529	0.308943089431	0.5	&
basis	0.996479571529	0.30081300813	0.5	&
basis	0.996479571529	0.284552845528	0.5	&
basis	0.996479571529	0.276422764228	0.5	&
basis	0.996479571529	0.260162601626	0.5	&
basis	0.996479571529	0.252032520325	0.5	&
basis	0.996479571529	0.235772357724	0.5	&
basis	0.996479571529	0.227642276423	0.5	&
basis	0.996479571529	0.211382113821	0.5	&
basis	0.996479571529	0.20325203252	0.5	&
basis	0.996479571529	0.186991869919	0.5	&
basis	0.996479571529	0.178861788618	0.5	&
basis	0.996479571529	0.162601626016	0.5	&
basis	0.996479571529	0.154471544715	0.5	&
basis	0.996479571529	0.138211382114	0.5	&
basis	0.996479571529	0.130081300813	0.5	&
basis	0.996479571529	0.113821138211	0.5	&
basis	0.996479571529	0.105691056911	0.5	&
basis	0.996479571529	0.0894308943089	0.5	&
basis	0.996479571529	0.0813008130081	0.5	&
basis	0.996479571529	0.0650406504065	0.5	&
basis	0.996479571529	0.0569105691057	0.5	&
basis	0.996479571529	0.0406504065041	0.5	&
basis	0.996479571529	0.0325203252033	0.5	&
basis	0.996479571529	0.0162601626016	0.5	&
basis	0.996479571529	0.00813008130081	0.5	&
basis	0.994132619216	0.00406504065041	0.5	&
basis	0.994132619216	0.020325203252	0.5	&
basis	0.994132619216	0.0284552845528	0.5	&
basis	0.994132619216	0.0447154471545	0.5	&
basis	0.994132619216	0.0528455284553	0.5	&
basis	0.994132619216	0.0691056910569	0.5	&
basis	0.994132619216	0.0772357723577	0.5	&
basis	0.994132619216	0.0934959349593	0.5	&
basis	0.994132619216	0.10162601626	0.5	&
basis	0.994132619216	0.117886178862	0.5	&
basis	0.994132619216	0.126016260163	0.5	&
basis	0.994132619216	0.142276422764	0.5	&
basis	0.994132619216	0.150406504065	0.5	&
basis	0.994132619216	0.166666666667	0.5	&
basis	0.994132619216	0.174796747967	0.5	&
basis	0.994132619216	0.191056910569	0.5	&
basis	0.994132619216	0.19918699187	0.5	&
basis	0.994132619216	0.215447154472	0.5	&
basis	0.994132619216	0.223577235772	0.5	&
basis	0.994132619216	0.239837398374	0.5	&
basis	0.994132619216	0.247967479675	0.5	&
basis	0.994132619216	0.264227642276	0.5	&
basis	0.994132619216	0.272357723577	0.5	&
basis	0.994132619216	0.288617886179	0.5	&
basis	0.994132619216	0.29674796748	0.5	&
basis	0.994132619216	0.313008130081	0.5	&
basis	0.994132619216	0.321138211382	0.5	&
basis	0.994132619216	0.337398373984	0.5	&
basis	0.994132619216	0.345528455285	0.5	&
basis	0.994132619216	0.361788617886	0.5	&
basis	0.994132619216	0.369918699187	0.5	&
basis	0.994132619216	0.386178861789	0.5	&
basis	0.994132619216	0.394308943089	0.5	&
basis	0.994132619216	0.410569105691	0.5	&
basis	0.994132619216	0.418699186992	0.5	&
basis	0.994132619216	0.434959349593	0.5	&
basis	0.994132619216	0.443089430894	0.5	&
basis	0.994132619216	0.459349593496	0.5	&
basis	0.994132619216	0.467479674797	0.5	&
basis	0.994132619216	0.483739837398	0.5	&
basis	0.994132619216	0.491869918699	0.5	&
basis	0.994132619216	0.508130081301	0.5	&
basis	0.994132619216	0.516260162602	0.5	&
basis	0.994132619216	0.532520325203	0.5	&
basis	0.994132619216	0.540650406504	0.5	&
basis	0.994132619216	0.556910569106	0.5	&
basis	0.994132619216	0.565040650407	0.5	&
basis	0.994132619216	0.581300813008	0.5	&
basis	0.994132619216	0.589430894309	0.5	&
basis	0.994132619216	0.605691056911	0.5	&
basis	0.994132619216	0.613821138211	0.5	&
basis	0.994132619216	0.630081300813	0.5	&
basis	0.994132619216	0.638211382114	0.5	&
basis	0.994132619216	0.654471544715	0.5	&
basis	0.994132619216	0.662601626016	0.5	&
basis	0.994132619216	0.678861788618	0.5	&
basis	0.994132619216	0.686991869919	0.5	&
basis	0.994132619216	0.70325203252	0.5	&
basis	0.994132619216	0.711382113821	0.5	&
basis	0.994132619216	0.727642276423	0.5	&
basis	0.994132619216	0.735772357724	0.5	&
basis	0.994132619216	0.752032520325	0.5	&
basis	0.994132619216	0.760162601626	0.5	&
basis	0.994132619216	0.776422764228	0.5	&
basis	0.994132619216	0.784552845528	0.5	&
basis	0.994132619216	0.80081300813	0.5	&
basis	0.994132619216	0.808943089431	0.5	&
basis	0.994132619216	0.825203252033	0.5	&
basis	0.994132619216	0.833333333333	0.5	&
basis	0.994132619216	0.849593495935	0.5	&
basis	0.994132619216	0.857723577236	0.5	&
basis	0.994132619216	0.873983739837	0.5	&
basis	0.994132619216	0.882113821138	0.5	&
basis	0.994132619216	0.89837398374	0.5	&
basis	0.994132619216	0.906504065041	0.5	&
basis	0.994132619216	0.922764227642	0.5	&
basis	0.994132619216	0.930894308943	0.5	&
basis	0.994132619216	0.947154471545	0.5	&
basis	0.994132619216	0.955284552846	0.5	&
basis	0.994132619216	0.971544715447	0.5	&
basis	0.994132619216	0.979674796748	0.5	&
basis	0.994132619216	0.99593495935	0.5	&
basis	0.991785666902	0.991869918699	0.5	&
basis	0.991785666902	0.983739837398	0.5	&
basis	0.991785666902	0.967479674797	0.5	&
basis	0.991785666902	0.959349593496	0.5	&
basis	0.991785666902	0.943089430894	0.5	&
basis	0.991785666902	0.934959349593	0.5	&
basis	0.991785666902	0.918699186992	0.5	&
basis	0.991785666902	0.910569105691	0.5	&
basis	0.991785666902	0.894308943089	0.5	&
basis	0.991785666902	0.886178861789	0.5	&
basis	0.991785666902	0.869918699187	0.5	&
basis	0.991785666902	0.861788617886	0.5	&
basis	0.991785666902	0.845528455285	0.5	&
basis	0.991785666902	0.837398373984	0.5	&
basis	0.991785666902	0.821138211382	0.5	&
basis	0.991785666902	0.813008130081	0.5	&
basis	0.991785666902	0.79674796748	0.5	&
basis	0.991785666902	0.788617886179	0.5	&
basis	0.991785666902	0.772357723577	0.5	&
basis	0.991785666902	0.764227642276	0.5	&
basis	0.991785666902	0.747967479675	0.5	&
basis	0.991785666902	0.739837398374	0.5	&
basis	0.991785666902	0.723577235772	0.5	&
basis	0.991785666902	0.715447154472	0.5	&
basis	0.991785666902	0.69918699187	0.5	&
basis	0.991785666902	0.691056910569	0.5	&
basis	0.991785666902	0.674796747967	0.5	&
basis	0.991785666902	0.666666666667	0.5	&
basis	0.991785666902	0.650406504065	0.5	&
basis	0.991785666902	0.642276422764	0.5	&
basis	0.991785666902	0.626016260163	0.5	&
basis	0.991785666902	0.617886178862	0.5	&
basis	0.991785666902	0.60162601626	0.5	&
basis	0.991785666902	0.593495934959	0.5	&
basis	0.991785666902	0.577235772358	0.5	&
basis	0.991785666902	0.569105691057	0.5	&
basis	0.991785666902	0.552845528455	0.5	&
basis	0.991785666902	0.544715447154	0.5	&
basis	0.991785666902	0.528455284553	0.5	&
basis	0.991785666902	0.520325203252	0.5	&
basis	0.991785666902	0.50406504065	0.5	&
basis	0.991785666902	0.49593495935	0.5	&
basis	0.991785666902	0.479674796748	0.5	&
basis	0.991785666902	0.471544715447	0.5	&
basis	0.991785666902	0.455284552846	0.5	&
basis	0.991785666902	0.447154471545	0.5	&
basis	0.991785666902	0.430894308943	0.5	&
basis	0.991785666902	0.422764227642	0.5	&
basis	0.991785666902	0.406504065041	0.5	&
basis	0.991785666902	0.39837398374	0.5	&
basis	0.991785666902	0.382113821138	0.5	&
basis	0.991785666902	0.373983739837	0.5	&
basis	0.991785666902	0.357723577236	0.5	&
basis	0.991785666902	0.349593495935	0.5	&
basis	0.991785666902	0.333333333333	0.5	&
basis	0.991785666902	0.325203252033	0.5	&
basis	0.991785666902	0.308943089431	0.5	&
basis	0.991785666902	0.30081300813	0.5	&
basis	0.991785666902	0.284552845528	0.5	&
basis	0.991785666902	0.276422764228	0.5	&
basis	0.991785666902	0.260162601626	0.5	&
basis	0.991785666902	0.252032520325	0.5	&
basis	0.991785666902	0.235772357724	0.5	&
basis	0.991785666902	0.227642276423	0.5	&
basis	0.991785666902	0.211382113821	0.5	&
basis	0.991785666902	0.20325203252	0.5	&
basis	0.991785666902	0.186991869919	0.5	&
basis	0.991785666902	0.178861788618	0.5	&
basis	0.991785666902	0.162601626016	0.5	&
basis	0.991785666902	0.154471544715	0.5	&
basis	0.991785666902	0.138211382114	0.5	&
basis	0.991785666902	0.130081300813	0.5	&
basis	0.991785666902	0.113821138211	0.5	&
basis	0.991785666902	0.105691056911	0.5	&
basis	0.991785666902	0.0894308943089	0.5	&
basis	0.991785666902	0.0813008130081	0.5	&
basis	0.991785666902	0.0650406504065	0.5	&
basis	0.991785666902	0.0569105691057	0.5	&
basis	0.991785666902	0.0406504065041	0.5	&
basis	0.991785666902	0.0325203252033	0.5	&
basis	0.991785666902	0.0162601626016	0.5	&
basis	0.991785666902	0.00813008130081	0.5	&
basis	0.989438714588	0.00406504065041	0.5	&
basis	0.989438714588	0.020325203252	0.5	&
basis	0.989438714588	0.0284552845528	0.5	&
basis	0.989438714588	0.0447154471545	0.5	&
basis	0.989438714588	0.0528455284553	0.5	&
basis	0.989438714588	0.0691056910569	0.5	&
basis	0.989438714588	0.0772357723577	0.5	&
basis	0.989438714588	0.0934959349593	0.5	&
basis	0.989438714588	0.10162601626	0.5	&
basis	0.989438714588	0.117886178862	0.5	&
basis	0.989438714588	0.126016260163	0.5	&
basis	0.989438714588	0.142276422764	0.5	&
basis	0.989438714588	0.150406504065	0.5	&
basis	0.989438714588	0.166666666667	0.5	&
basis	0.989438714588	0.174796747967	0.5	&
basis	0.989438714588	0.191056910569	0.5	&
basis	0.989438714588	0.19918699187	0.5	&
basis	0.989438714588	0.215447154472	0.5	&
basis	0.989438714588	0.223577235772	0.5	&
basis	0.989438714588	0.239837398374	0.5	&
basis	0.989438714588	0.247967479675	0.5	&
basis	0.989438714588	0.264227642276	0.5	&
basis	0.989438714588	0.272357723577	0.5	&
basis	0.989438714588	0.288617886179	0.5	&
basis	0.989438714588	0.29674796748	0.5	&
basis	0.989438714588	0.313008130081	0.5	&
basis	0.989438714588	0.321138211382	0.5	&
basis	0.989438714588	0.337398373984	0.5	&
basis	0.989438714588	0.345528455285	0.5	&
basis	0.989438714588	0.361788617886	0.5	&
basis	0.989438714588	0.369918699187	0.5	&
basis	0.989438714588	0.386178861789	0.5	&
basis	0.989438714588	0.394308943089	0.5	&
basis	0.989438714588	0.410569105691	0.5	&
basis	0.989438714588	0.418699186992	0.5	&
basis	0.989438714588	0.434959349593	0.5	&
basis	0.989438714588	0.443089430894	0.5	&
basis	0.989438714588	0.459349593496	0.5	&
basis	0.989438714588	0.467479674797	0.5	&
basis	0.989438714588	0.483739837398	0.5	&
basis	0.989438714588	0.491869918699	0.5	&
basis	0.989438714588	0.508130081301	0.5	&
basis	0.989438714588	0.516260162602	0.5	&
basis	0.989438714588	0.532520325203	0.5	&
basis	0.989438714588	0.540650406504	0.5	&
basis	0.989438714588	0.556910569106	0.5	&
basis	0.989438714588	0.565040650407	0.5	&
basis	0.989438714588	0.581300813008	0.5	&
basis	0.989438714588	0.589430894309	0.5	&
basis	0.989438714588	0.605691056911	0.5	&
basis	0.989438714588	0.613821138211	0.5	&
basis	0.989438714588	0.630081300813	0.5	&
basis	0.989438714588	0.638211382114	0.5	&
basis	0.989438714588	0.654471544715	0.5	&
basis	0.989438714588	0.662601626016	0.5	&
basis	0.989438714588	0.678861788618	0.5	&
basis	0.989438714588	0.686991869919	0.5	&
basis	0.989438714588	0.70325203252	0.5	&
basis	0.989438714588	0.711382113821	0.5	&
basis	0.989438714588	0.727642276423	0.5	&
basis	0.989438714588	0.735772357724	0.5	&
basis	0.989438714588	0.752032520325	0.5	&
basis	0.989438714588	0.760162601626	0.5	&
basis	0.989438714588	0.776422764228	0.5	&
basis	0.989438714588	0.784552845528	0.5	&
basis	0.989438714588	0.80081300813	0.5	&
basis	0.989438714588	0.808943089431	0.5	&
basis	0.989438714588	0.825203252033	0.5	&
basis	0.989438714588	0.833333333333	0.5	&
basis	0.989438714588	0.849593495935	0.5	&
basis	0.989438714588	0.857723577236	0.5	&
basis	0.989438714588	0.873983739837	0.5	&
basis	0.989438714588	0.882113821138	0.5	&
basis	0.989438714588	0.89837398374	0.5	&
basis	0.989438714588	0.906504065041	0.5	&
basis	0.989438714588	0.922764227642	0.5	&
basis	0.989438714588	0.930894308943	0.5	&
basis	0.989438714588	0.947154471545	0.5	&
basis	0.989438714588	0.955284552846	0.5	&
basis	0.989438714588	0.971544715447	0.5	&
basis	0.989438714588	0.979674796748	0.5	&
basis	0.989438714588	0.99593495935	0.5	&
basis	0.987091762274	0.991869918699	0.5	&
basis	0.987091762274	0.983739837398	0.5	&
basis	0.987091762274	0.967479674797	0.5	&
basis	0.987091762274	0.959349593496	0.5	&
basis	0.987091762274	0.943089430894	0.5	&
basis	0.987091762274	0.934959349593	0.5	&
basis	0.987091762274	0.918699186992	0.5	&
basis	0.987091762274	0.910569105691	0.5	&
basis	0.987091762274	0.894308943089	0.5	&
basis	0.987091762274	0.886178861789	0.5	&
basis	0.987091762274	0.869918699187	0.5	&
basis	0.987091762274	0.861788617886	0.5	&
basis	0.987091762274	0.845528455285	0.5	&
basis	0.987091762274	0.837398373984	0.5	&
basis	0.987091762274	0.821138211382	0.5	&
basis	0.987091762274	0.813008130081	0.5	&
basis	0.987091762274	0.79674796748	0.5	&
basis	0.987091762274	0.788617886179	0.5	&
basis	0.987091762274	0.772357723577	0.5	&
basis	0.987091762274	0.764227642276	0.5	&
basis	0.987091762274	0.747967479675	0.5	&
basis	0.987091762274	0.739837398374	0.5	&
basis	0.987091762274	0.723577235772	0.5	&
basis	0.987091762274	0.715447154472	0.5	&
basis	0.987091762274	0.69918699187	0.5	&
basis	0.987091762274	0.691056910569	0.5	&
basis	0.987091762274	0.674796747967	0.5	&
basis	0.987091762274	0.666666666667	0.5	&
basis	0.987091762274	0.650406504065	0.5	&
basis	0.987091762274	0.642276422764	0.5	&
basis	0.987091762274	0.626016260163	0.5	&
basis	0.987091762274	0.617886178862	0.5	&
basis	0.987091762274	0.60162601626	0.5	&
basis	0.987091762274	0.593495934959	0.5	&
basis	0.987091762274	0.577235772358	0.5	&
basis	0.987091762274	0.569105691057	0.5	&
basis	0.987091762274	0.552845528455	0.5	&
basis	0.987091762274	0.544715447154	0.5	&
basis	0.987091762274	0.528455284553	0.5	&
basis	0.987091762274	0.520325203252	0.5	&
basis	0.987091762274	0.50406504065	0.5	&
basis	0.987091762274	0.49593495935	0.5	&
basis	0.987091762274	0.479674796748	0.5	&
basis	0.987091762274	0.471544715447	0.5	&
basis	0.987091762274	0.455284552846	0.5	&
basis	0.987091762274	0.447154471545	0.5	&
basis	0.987091762274	0.430894308943	0.5	&
basis	0.987091762274	0.422764227642	0.5	&
basis	0.987091762274	0.406504065041	0.5	&
basis	0.987091762274	0.39837398374	0.5	&
basis	0.987091762274	0.382113821138	0.5	&
basis	0.987091762274	0.373983739837	0.5	&
basis	0.987091762274	0.357723577236	0.5	&
basis	0.987091762274	0.349593495935	0.5	&
basis	0.987091762274	0.333333333333	0.5	&
basis	0.987091762274	0.325203252033	0.5	&
basis	0.987091762274	0.308943089431	0.5	&
basis	0.987091762274	0.30081300813	0.5	&
basis	0.987091762274	0.284552845528	0.5	&
basis	0.987091762274	0.276422764228	0.5	&
basis	0.987091762274	0.260162601626	0.5	&
basis	0.987091762274	0.252032520325	0.5	&
basis	0.987091762274	0.235772357724	0.5	&
basis	0.987091762274	0.227642276423	0.5	&
basis	0.987091762274	0.211382113821	0.5	&
basis	0.987091762274	0.20325203252	0.5	&
basis	0.987091762274	0.186991869919	0.5	&
basis	0.987091762274	0.178861788618	0.5	&
basis	0.987091762274	0.162601626016	0.5	&
basis	0.987091762274	0.154471544715	0.5	&
basis	0.987091762274	0.138211382114	0.5	&
basis	0.987091762274	0.130081300813	0.5	&
basis	0.987091762274	0.113821138211	0.5	&
basis	0.987091762274	0.105691056911	0.5	&
basis	0.987091762274	0.0894308943089	0.5	&
basis	0.987091762274	0.0813008130081	0.5	&
basis	0.987091762274	0.0650406504065	0.5	&
basis	0.987091762274	0.0569105691057	0.5	&
basis	0.987091762274	0.0406504065041	0.5	&
basis	0.987091762274	0.0325203252033	0.5	&
basis	0.987091762274	0.0162601626016	0.5	&
basis	0.987091762274	0.00813008130081	0.5	&
basis	0.98474480996	0.00406504065041	0.5	&
basis	0.98474480996	0.020325203252	0.5	&
basis	0.98474480996	0.0284552845528	0.5	&
basis	0.98474480996	0.0447154471545	0.5	&
basis	0.98474480996	0.0528455284553	0.5	&
basis	0.98474480996	0.0691056910569	0.5	&
basis	0.98474480996	0.0772357723577	0.5	&
basis	0.98474480996	0.0934959349593	0.5	&
basis	0.98474480996	0.10162601626	0.5	&
basis	0.98474480996	0.117886178862	0.5	&
basis	0.98474480996	0.126016260163	0.5	&
basis	0.98474480996	0.142276422764	0.5	&
basis	0.98474480996	0.150406504065	0.5	&
basis	0.98474480996	0.166666666667	0.5	&
basis	0.98474480996	0.174796747967	0.5	&
basis	0.98474480996	0.191056910569	0.5	&
basis	0.98474480996	0.19918699187	0.5	&
basis	0.98474480996	0.215447154472	0.5	&
basis	0.98474480996	0.223577235772	0.5	&
basis	0.98474480996	0.239837398374	0.5	&
basis	0.98474480996	0.247967479675	0.5	&
basis	0.98474480996	0.264227642276	0.5	&
basis	0.98474480996	0.272357723577	0.5	&
basis	0.98474480996	0.288617886179	0.5	&
basis	0.98474480996	0.29674796748	0.5	&
basis	0.98474480996	0.313008130081	0.5	&
basis	0.98474480996	0.321138211382	0.5	&
basis	0.98474480996	0.337398373984	0.5	&
basis	0.98474480996	0.345528455285	0.5	&
basis	0.98474480996	0.361788617886	0.5	&
basis	0.98474480996	0.369918699187	0.5	&
basis	0.98474480996	0.386178861789	0.5	&
basis	0.98474480996	0.394308943089	0.5	&
basis	0.98474480996	0.410569105691	0.5	&
basis	0.98474480996	0.418699186992	0.5	&
basis	0.98474480996	0.434959349593	0.5	&
basis	0.98474480996	0.443089430894	0.5	&
basis	0.98474480996	0.459349593496	0.5	&
basis	0.98474480996	0.467479674797	0.5	&
basis	0.98474480996	0.483739837398	0.5	&
basis	0.98474480996	0.491869918699	0.5	&
basis	0.98474480996	0.508130081301	0.5	&
basis	0.98474480996	0.516260162602	0.5	&
basis	0.98474480996	0.532520325203	0.5	&
basis	0.98474480996	0.540650406504	0.5	&
basis	0.98474480996	0.556910569106	0.5	&
basis	0.98474480996	0.565040650407	0.5	&
basis	0.98474480996	0.581300813008	0.5	&
basis	0.98474480996	0.589430894309	0.5	&
basis	0.98474480996	0.605691056911	0.5	&
basis	0.98474480996	0.613821138211	0.5	&
basis	0.98474480996	0.630081300813	0.5	&
basis	0.98474480996	0.638211382114	0.5	&
basis	0.98474480996	0.654471544715	0.5	&
basis	0.98474480996	0.662601626016	0.5	&
basis	0.98474480996	0.678861788618	0.5	&
basis	0.98474480996	0.686991869919	0.5	&
basis	0.98474480996	0.70325203252	0.5	&
basis	0.98474480996	0.711382113821	0.5	&
basis	0.98474480996	0.727642276423	0.5	&
basis	0.98474480996	0.735772357724	0.5	&
basis	0.98474480996	0.752032520325	0.5	&
basis	0.98474480996	0.760162601626	0.5	&
basis	0.98474480996	0.776422764228	0.5	&
basis	0.98474480996	0.784552845528	0.5	&
basis	0.98474480996	0.80081300813	0.5	&
basis	0.98474480996	0.808943089431	0.5	&
basis	0.98474480996	0.825203252033	0.5	&
basis	0.98474480996	0.833333333333	0.5	&
basis	0.98474480996	0.849593495935	0.5	&
basis	0.98474480996	0.857723577236	0.5	&
basis	0.98474480996	0.873983739837	0.5	&
basis	0.98474480996	0.882113821138	0.5	&
basis	0.98474480996	0.89837398374	0.5	&
basis	0.98474480996	0.906504065041	0.5	&
basis	0.98474480996	0.922764227642	0.5	&
basis	0.98474480996	0.930894308943	0.5	&
basis	0.98474480996	0.947154471545	0.5	&
basis	0.98474480996	0.955284552846	0.5	&
basis	0.98474480996	0.971544715447	0.5	&
basis	0.98474480996	0.979674796748	0.5	&
basis	0.98474480996	0.99593495935	0.5	&
basis	0.982397857647	0.991869918699	0.5	&
basis	0.982397857647	0.983739837398	0.5	&
basis	0.982397857647	0.967479674797	0.5	&
basis	0.982397857647	0.959349593496	0.5	&
basis	0.982397857647	0.943089430894	0.5	&
basis	0.982397857647	0.934959349593	0.5	&
basis	0.982397857647	0.918699186992	0.5	&
basis	0.982397857647	0.910569105691	0.5	&
basis	0.982397857647	0.894308943089	0.5	&
basis	0.982397857647	0.886178861789	0.5	&
basis	0.982397857647	0.869918699187	0.5	&
basis	0.982397857647	0.861788617886	0.5	&
basis	0.982397857647	0.845528455285	0.5	&
basis	0.982397857647	0.837398373984	0.5	&
basis	0.982397857647	0.821138211382	0.5	&
basis	0.982397857647	0.813008130081	0.5	&
basis	0.982397857647	0.79674796748	0.5	&
basis	0.982397857647	0.788617886179	0.5	&
basis	0.982397857647	0.772357723577	0.5	&
basis	0.982397857647	0.764227642276	0.5	&
basis	0.982397857647	0.747967479675	0.5	&
basis	0.982397857647	0.739837398374	0.5	&
basis	0.982397857647	0.723577235772	0.5	&
basis	0.982397857647	0.715447154472	0.5	&
basis	0.982397857647	0.69918699187	0.5	&
basis	0.982397857647	0.691056910569	0.5	&
basis	0.982397857647	0.674796747967	0.5	&
basis	0.982397857647	0.666666666667	0.5	&
basis	0.982397857647	0.650406504065	0.5	&
basis	0.982397857647	0.642276422764	0.5	&
basis	0.982397857647	0.626016260163	0.5	&
basis	0.982397857647	0.617886178862	0.5	&
basis	0.982397857647	0.60162601626	0.5	&
basis	0.982397857647	0.593495934959	0.5	&
basis	0.982397857647	0.577235772358	0.5	&
basis	0.982397857647	0.569105691057	0.5	&
basis	0.982397857647	0.552845528455	0.5	&
basis	0.982397857647	0.544715447154	0.5	&
basis	0.982397857647	0.528455284553	0.5	&
basis	0.982397857647	0.520325203252	0.5	&
basis	0.982397857647	0.50406504065	0.5	&
basis	0.982397857647	0.49593495935	0.5	&
basis	0.982397857647	0.479674796748	0.5	&
basis	0.982397857647	0.471544715447	0.5	&
basis	0.982397857647	0.455284552846	0.5	&
basis	0.982397857647	0.447154471545	0.5	&
basis	0.982397857647	0.430894308943	0.5	&
basis	0.982397857647	0.422764227642	0.5	&
basis	0.982397857647	0.406504065041	0.5	&
basis	0.982397857647	0.39837398374	0.5	&
basis	0.982397857647	0.382113821138	0.5	&
basis	0.982397857647	0.373983739837	0.5	&
basis	0.982397857647	0.357723577236	0.5	&
basis	0.982397857647	0.349593495935	0.5	&
basis	0.982397857647	0.333333333333	0.5	&
basis	0.982397857647	0.325203252033	0.5	&
basis	0.982397857647	0.308943089431	0.5	&
basis	0.982397857647	0.30081300813	0.5	&
basis	0.982397857647	0.284552845528	0.5	&
basis	0.982397857647	0.276422764228	0.5	&
basis	0.982397857647	0.260162601626	0.5	&
basis	0.982397857647	0.252032520325	0.5	&
basis	0.982397857647	0.235772357724	0.5	&
basis	0.982397857647	0.227642276423	0.5	&
basis	0.982397857647	0.211382113821	0.5	&
basis	0.982397857647	0.20325203252	0.5	&
basis	0.982397857647	0.186991869919	0.5	&
basis	0.982397857647	0.178861788618	0.5	&
basis	0.982397857647	0.162601626016	0.5	&
basis	0.982397857647	0.154471544715	0.5	&
basis	0.982397857647	0.138211382114	0.5	&
basis	0.982397857647	0.130081300813	0.5	&
basis	0.982397857647	0.113821138211	0.5	&
basis	0.982397857647	0.105691056911	0.5	&
basis	0.982397857647	0.0894308943089	0.5	&
basis	0.982397857647	0.0813008130081	0.5	&
basis	0.982397857647	0.0650406504065	0.5	&
basis	0.982397857647	0.0569105691057	0.5	&
basis	0.982397857647	0.0406504065041	0.5	&
basis	0.982397857647	0.0325203252033	0.5	&
basis	0.982397857647	0.0162601626016	0.5	&
basis	0.982397857647	0.00813008130081	0.5	&
basis	0.980050905333	0.00406504065041	0.5	&
basis	0.980050905333	0.020325203252	0.5	&
basis	0.980050905333	0.0284552845528	0.5	&
basis	0.980050905333	0.0447154471545	0.5	&
basis	0.980050905333	0.0528455284553	0.5	&
basis	0.980050905333	0.0691056910569	0.5	&
basis	0.980050905333	0.0772357723577	0.5	&
basis	0.980050905333	0.0934959349593	0.5	&
basis	0.980050905333	0.10162601626	0.5	&
basis	0.980050905333	0.117886178862	0.5	&
basis	0.980050905333	0.126016260163	0.5	&
basis	0.980050905333	0.142276422764	0.5	&
basis	0.980050905333	0.150406504065	0.5	&
basis	0.980050905333	0.166666666667	0.5	&
basis	0.980050905333	0.174796747967	0.5	&
basis	0.980050905333	0.191056910569	0.5	&
basis	0.980050905333	0.19918699187	0.5	&
basis	0.980050905333	0.215447154472	0.5	&
basis	0.980050905333	0.223577235772	0.5	&
basis	0.980050905333	0.239837398374	0.5	&
basis	0.980050905333	0.247967479675	0.5	&
basis	0.980050905333	0.264227642276	0.5	&
basis	0.980050905333	0.272357723577	0.5	&
basis	0.980050905333	0.288617886179	0.5	&
basis	0.980050905333	0.29674796748	0.5	&
basis	0.980050905333	0.313008130081	0.5	&
basis	0.980050905333	0.321138211382	0.5	&
basis	0.980050905333	0.337398373984	0.5	&
basis	0.980050905333	0.345528455285	0.5	&
basis	0.980050905333	0.361788617886	0.5	&
basis	0.980050905333	0.369918699187	0.5	&
basis	0.980050905333	0.386178861789	0.5	&
basis	0.980050905333	0.394308943089	0.5	&
basis	0.980050905333	0.410569105691	0.5	&
basis	0.980050905333	0.418699186992	0.5	&
basis	0.980050905333	0.434959349593	0.5	&
basis	0.980050905333	0.443089430894	0.5	&
basis	0.980050905333	0.459349593496	0.5	&
basis	0.980050905333	0.467479674797	0.5	&
basis	0.980050905333	0.483739837398	0.5	&
basis	0.980050905333	0.491869918699	0.5	&
basis	0.980050905333	0.508130081301	0.5	&
basis	0.980050905333	0.516260162602	0.5	&
basis	0.980050905333	0.532520325203	0.5	&
basis	0.980050905333	0.540650406504	0.5	&
basis	0.980050905333	0.556910569106	0.5	&
basis	0.980050905333	0.565040650407	0.5	&
basis	0.980050905333	0.581300813008	0.5	&
basis	0.980050905333	0.589430894309	0.5	&